50
6012

693 108
53 481
49 556
447 563
18 768
321 366
561 629
611 282
72 683
273 386
592 664
830 177
191 329
665 974
915 494
406 618
363 796
891 387
418 481
798 24
880 802
572 402
395 470
505 892
158 455
751 303
658 611
916 613
149 686
158 779
30 82
221 744
46 564
454 522
216 432
328 56
818 359
290 6
777 501
233 393
516 441
462 101
124 670
237 745
1 3
189 39
975 711
839 452
214 636
768 464
